n = 7;
s = 1;
t = 7;
poids = [[10000.0, 3.0, 7.2, 10000.0, 10000.0, 10000.0, 10000.0], [10000.0, 10000.0, 10000.0, 10000.0, 10000.0, 10000.0, 10000.0], [10000.0, 10000.0, 10000.0, 5.1, 10000.0, 10000.0, 10000.0], [10000.0, 10000.0, 10000.0, 10000.0, 10000.0, 10000.0, 2.5], [4.1, 10000.0, 10000.0, 10000.0, 10000.0, 7.8, 10000.0], [10000.0, 10000.0, 10000.0, 10000.0, 10000.0, 10000.0, 10000.0], [10000.0, 10000.0, 10000.0, 10000.0, 10000.0, 4.5, 10000.0]];